NAME : kroE100-C-3-1-a__bsl__32276.tour
COMMENT : Length = 32276.000
COMMENT : Generated by compare_sota_instances.py for bsl
TYPE : TOUR
DIMENSION : 100
TOUR_SECTION
84
1
17
62
60
50
49
56
20
15
23
28
36
64
51
69
21
74
83
47
3
46
26
79
81
89
71
72
61
16
73
14
44
52
25
54
99
45
40
35
95
59
58
63
76
12
32
98
7
88
33
68
38
86
22
39
43
19
94
18
24
29
100
53
78
34
37
70
96
85
77
4
2
11
67
87
41
27
82
92
75
13
91
6
55
93
30
90
48
42
5
8
65
97
57
80
10
9
66
31
-1
EOF
